(declare-fun _for_it_23 () Int)
(declare-fun _for_it_35 () Int)
(declare-fun kfdia () Int)
(declare-fun kidia () Int)
(declare-fun klev () Int)
(declare-fun ncldtop () Int)

(assert (forall ((_if_cond_21_val (Array Int Int)))
  (and
    (and
      (<= kidia (+ kfdia (- 1)))
      (<= 0 _for_it_35)
      (<= (+ _for_it_35 1) 4)
      (<= ncldtop (+ klev (- 1)))
    )
    (forall ((_for_it_36_0 Int) (_for_it_36_1 Int))
      (or
        (not (= _for_it_36_0 _for_it_36_1))
        (not (= _for_it_35 (+ _for_it_35 1)))
        (not (= (select _if_cond_21_val (- (+ _for_it_35 (* 4 _for_it_23) 4) (* ncldtop 4))) 1))
        (not (= (select _if_cond_21_val (- (+ _for_it_35 (* 4 _for_it_23) 5) (* ncldtop 4))) 1))
        (not (<= _for_it_36_1 (+ kfdia (- 1))))
        (not (<= (+ kidia (- 1)) _for_it_36_1))
        (not (<= _for_it_36_0 (+ kfdia (- 1))))
        (not (<= (+ kidia (- 1)) _for_it_36_0))
      )
    )
    (forall ((_for_it_36_0 Int) (_for_it_36_1 Int))
      (or
        (not (= _for_it_36_0 _for_it_36_1))
        (not (= _for_it_35 4))
        (not (= 4 (+ _for_it_35 1)))
        (not (= (select _if_cond_21_val (- (+ _for_it_35 (* 4 _for_it_23) 4) (* ncldtop 4))) 1))
        (not (= (select _if_cond_21_val (- (+ _for_it_35 (* 4 _for_it_23) 5) (* ncldtop 4))) 1))
        (not (<= _for_it_36_1 (+ kfdia (- 1))))
        (not (<= (+ kidia (- 1)) _for_it_36_1))
        (not (<= _for_it_36_0 (+ kfdia (- 1))))
        (not (<= (+ kidia (- 1)) _for_it_36_0))
      )
    )
    (forall ((_for_it_36_0 Int) (_for_it_36_1 Int))
      (or
        (not (= _for_it_36_0 _for_it_36_1))
        (not (= _for_it_35 (+ _for_it_35 1)))
        (not (= 4 (+ _for_it_35 1)))
        (not (= (select _if_cond_21_val (- (+ _for_it_35 (* 4 _for_it_23) 4) (* ncldtop 4))) 1))
        (not (= (select _if_cond_21_val (- (+ _for_it_35 (* 4 _for_it_23) 5) (* ncldtop 4))) 1))
        (not (<= _for_it_36_1 (+ kfdia (- 1))))
        (not (<= (+ kidia (- 1)) _for_it_36_1))
        (not (<= _for_it_36_0 (+ kfdia (- 1))))
        (not (<= (+ kidia (- 1)) _for_it_36_0))
      )
    )
    (forall ((_for_it_36_0 Int) (_for_it_36_1 Int))
      (or
        (not (= (select _if_cond_21_val (- (+ _for_it_35 (* 4 _for_it_23) 4) (* ncldtop 4))) 1))
        (not (= (select _if_cond_21_val (- (+ _for_it_35 (* 4 _for_it_23) 5) (* ncldtop 4))) 1))
        (not (<= _for_it_36_1 (+ kfdia (- 1))))
        (not (<= (+ kidia (- 1)) _for_it_36_1))
        (not (<= _for_it_36_0 (+ kfdia (- 1))))
        (not (<= (+ kidia (- 1)) _for_it_36_0))
      )
    )
    (forall ((_for_it_36_0 Int) (_for_it_36_1 Int))
      (or
        (not (= _for_it_36_0 _for_it_36_1))
        (not (= _for_it_35 (+ _for_it_35 1)))
        (not (= _for_it_35 4))
        (not (= (select _if_cond_21_val (- (+ _for_it_35 (* 4 _for_it_23) 4) (* ncldtop 4))) 1))
        (not (= (select _if_cond_21_val (- (+ _for_it_35 (* 4 _for_it_23) 5) (* ncldtop 4))) 1))
        (not (<= _for_it_36_1 (+ kfdia (- 1))))
        (not (<= (+ kidia (- 1)) _for_it_36_1))
        (not (<= _for_it_36_0 (+ kfdia (- 1))))
        (not (<= (+ kidia (- 1)) _for_it_36_0))
      )
    )
    (forall ((_for_it_36_0 Int) (_for_it_36_1 Int))
      (or
        (not (= _for_it_36_0 _for_it_36_1))
        (not (= (select _if_cond_21_val (- (+ _for_it_35 (* 4 _for_it_23) 4) (* ncldtop 4))) 1))
        (not (= (select _if_cond_21_val (- (+ _for_it_35 (* 4 _for_it_23) 5) (* ncldtop 4))) 1))
        (not (<= _for_it_36_1 (+ kfdia (- 1))))
        (not (<= (+ kidia (- 1)) _for_it_36_1))
        (not (<= _for_it_36_0 (+ kfdia (- 1))))
        (not (<= (+ kidia (- 1)) _for_it_36_0))
      )
    )
    (not (= (- (+ _for_it_35 (* 4 _for_it_23) 4) (* ncldtop 4)) (- (+ _for_it_35 (* 4 _for_it_23) 5) (* ncldtop 4))))
  )
))

(check-sat)